nbObj= 100;
Capacity= 122;
Profit =[ 10,7,16,11,13,9,31,1,10,14,20,7,9,24,17,16,27,33,8,4,22,24,17,8,25,22,11,26,2,18,9,36,2,19,39,2,22,29,39,9,11,22,1,4,21,34,28,37,33,1,9,0,29,27,6,2,3,9,33,4,24,0,14,3,8,41,7,12,11,29,15,17,3,24,33,20,25,25,22,2,34,30,19,2,27,13,6,15,3,1,34,6,33,17,23,2,24,2,1,7];
Weight =[ 29,13,32,42,33,36,46,8,17,34,45,16,37,36,45,50,37,43,19,7,37,59,23,14,39,53,14,43,8,30,30,48,5,58,53,6,30,42,54,22,34,39,6,20,31,48,52,50,57,2,34,2,55,47,30,4,6,33,47,15,33,1,21,11,28,57,11,49,25,45,27,40,14,35,55,53,35,34,35,3,48,40,41,3,46,42,19,37,16,8,44,21,45,57,30,6,43,7,4,12];
